Traveling Salesman Problem/TSP_generados/Aleatorio1621103460_14.tsp
NAME: Aleatorio1621103460_14.tsp
COMMENT: Randomly generated scenario
TYPE: TSP
DIMENSION: 14
EDGE_WEIGHT_TYPE: ATT
NODE_COORD_SECTION
1 33.97 35.52
2 45.09 38.62
3 40.0 10.4
4 18.69 35.29
5 47.21 1.71
6 36.74 21.72
7 15.82 19.32
8 45.61 47.63
9 31.44 17.2
10 45.93 10.5
11 5.07 17.31
12 20.89 35.98
13 32.66 36.65
14 22.62 0.81
