Traveling Salesman Problem/TSP_generados/Aleatorio1621103460_14.opt.tour
NAME: Aleatorio1621103460_14.opt.tour
COMMENT: Optimal solution for Aleatorio1621103460_14 (169.06555000379257)
TYPE: TOUR
DIMENSION: 14
TOUR_SECTION
1 8 2 6 9 3 10 5 14 11 7 4 12 13
-1
EOF
